instances/knapsack/discrete_knapsack_uncertainty/knapsack_130_5.lp
\ Model knapsack_130_5
\ LP format - for model browsing. Use MPS format to capture full model detail.
\ Signature: 0x8c644a484ac146d4
Minimize
  - 73 x[0] - x[1] - 3 x[2] - 67 x[3] - 40 x[4] - 40 x[5] - 64 x[6] - 6 x[7]
   - 61 x[8] - 93 x[9] - 86 x[10] - 86 x[11] - 82 x[12] - 53 x[13]
   - 62 x[14] - 87 x[15] - 81 x[16] - 65 x[17] - 69 x[18] - 4 x[19]
   - 60 x[20] - 50 x[21] - 47 x[22] - 59 x[23] - 16 x[24] - 25 x[25]
   - 39 x[26] - 50 x[27] - 41 x[28] - 19 x[29] - 28 x[30] - 59 x[31]
   - 55 x[32] - 22 x[33] - 18 x[34] - 60 x[35] - 8 x[36] - 14 x[37]
   - 65 x[38] - 22 x[39] - 63 x[40] - 32 x[41] - 72 x[42] - 30 x[43]
   - 53 x[44] - 10 x[45] - 27 x[46] - 31 x[47] - 35 x[48] - 32 x[49]
   - 82 x[50] - 9 x[51] - 86 x[52] - 84 x[53] - 19 x[54] - 81 x[55]
   - 93 x[56] - 79 x[57] - 31 x[58] - 26 x[59] - 59 x[60] - 57 x[61]
   - 76 x[62] - 20 x[63] - 5 x[64] - 24 x[65] - 68 x[66] - 88 x[67]
   - 47 x[68] - 8 x[69] - 32 x[70] - 50 x[71] - 96 x[72] - 44 x[73]
   - 33 x[74] - 81 x[75] - 45 x[76] - 20 x[77] - 47 x[78] - 26 x[79]
   - 42 x[80] - 93 x[81] - 36 x[82] - 13 x[83] - 56 x[84] - 71 x[85]
   - 73 x[86] - 86 x[87] - 91 x[88] - 13 x[89] - 13 x[90] - 32 x[91]
   - 44 x[92] - 47 x[93] - 31 x[94] - 13 x[95] - 88 x[96] - 79 x[97]
   - 75 x[98] - 19 x[99] - 43 x[100] - 4 x[101] - 61 x[102] - 84 x[103]
   - 14 x[104] - 58 x[105] - 89 x[106] - 7 x[107] - 57 x[108] - 27 x[109]
   - 40 x[110] - 37 x[111] - 44 x[112] - 50 x[113] - 97 x[114] - 64 x[115]
   - 58 x[116] - 24 x[117] - 81 x[118] - 30 x[119] - 8 x[120] - 73 x[121]
   - 81 x[122] - 74 x[123] - 18 x[124] - 99 x[125] - 75 x[126] - 85 x[127]
   - 54 x[128] - 63 x[129]
Subject To
 primal_upper: 16 x[0] + 37 x[1] + 75 x[2] + 68 x[3] + 93 x[4] + 22 x[5]
   + 94 x[6] + 80 x[7] + 90 x[8] + 99 x[9] + 56 x[10] + 88 x[11] + 13 x[12]
   + 65 x[13] + 77 x[14] + 69 x[15] + 82 x[16] + 57 x[17] + 62 x[18]
   + 23 x[19] + 18 x[20] + 36 x[21] + 89 x[22] + 31 x[23] + 69 x[24]
   + 37 x[25] + 3 x[26] + 76 x[27] + 66 x[28] + 80 x[29] + 2 x[30]
   + 100 x[31] + 8 x[32] + 14 x[33] + 73 x[34] + 30 x[35] + 89 x[36]
   + 21 x[37] + 25 x[38] + 19 x[39] + 24 x[40] + 70 x[41] + 71 x[42]
   + 22 x[43] + 60 x[44] + 23 x[45] + 6 x[46] + 50 x[47] + 52 x[48]
   + 9 x[49] + 39 x[50] + 57 x[51] + 90 x[52] + 89 x[53] + 5 x[54]
   + 88 x[55] + 54 x[56] + 35 x[57] + 77 x[58] + 39 x[59] + 61 x[60]
   + 39 x[61] + 56 x[62] + 63 x[63] + 48 x[64] + 21 x[65] + 81 x[66]
   + 99 x[67] + 73 x[68] + 66 x[69] + 10 x[70] + 94 x[71] + 95 x[72]
   + 8 x[73] + 16 x[74] + 33 x[75] + 35 x[76] + 28 x[77] + 21 x[78]
   + 51 x[79] + 70 x[80] + 22 x[81] + 87 x[82] + 74 x[83] + 62 x[84]
   + 18 x[85] + 32 x[86] + 33 x[87] + 27 x[88] + 88 x[89] + 33 x[90]
   + 33 x[91] + 85 x[92] + 100 x[93] + 29 x[94] + 30 x[95] + 98 x[96]
   + 77 x[97] + 93 x[98] + 69 x[99] + 50 x[100] + 49 x[101] + 99 x[102]
   + 33 x[103] + 86 x[104] + 91 x[105] + 32 x[106] + 23 x[107] + 31 x[108]
   + 50 x[109] + 55 x[110] + 20 x[111] + 86 x[112] + 14 x[113] + 98 x[114]
   + 87 x[115] + 72 x[116] + 18 x[117] + 22 x[118] + 33 x[119] + 96 x[120]
   + 13 x[121] + 36 x[122] + 39 x[123] + 2 x[124] + 75 x[125] + 64 x[126]
   + 48 x[127] + 75 x[128] + 24 x[129] + 1.6 r[0] + 3.7 r[1] + 7.5 r[2]
   + 6.8 r[3] + 9.3 r[4] + 2.2 r[5] + 9.4 r[6] + 8 r[7] + 9 r[8] + 9.9 r[9]
   + 5.6 r[10] + 8.8 r[11] + 1.3 r[12] + 6.5 r[13] + 7.7 r[14] + 6.9 r[15]
   + 8.2 r[16] + 5.7 r[17] + 6.2 r[18] + 2.3 r[19] + 1.8 r[20] + 3.6 r[21]
   + 8.9 r[22] + 3.1 r[23] + 6.9 r[24] + 3.7 r[25] + 0.3 r[26] + 7.6 r[27]
   + 6.6 r[28] + 8 r[29] + 0.2 r[30] + 10 r[31] + 0.8 r[32] + 1.4 r[33]
   + 7.3 r[34] + 3 r[35] + 8.9 r[36] + 2.1 r[37] + 2.5 r[38] + 1.9 r[39]
   + 2.4 r[40] + 7 r[41] + 7.1 r[42] + 2.2 r[43] + 6 r[44] + 2.3 r[45]
   + 0.6 r[46] + 5 r[47] + 5.2 r[48] + 0.9 r[49] + 3.9 r[50] + 5.7 r[51]
   + 9 r[52] + 8.9 r[53] + 0.5 r[54] + 8.8 r[55] + 5.4 r[56] + 3.5 r[57]
   + 7.7 r[58] + 3.9 r[59] + 6.1 r[60] + 3.9 r[61] + 5.6 r[62] + 6.3 r[63]
   + 4.8 r[64] + 2.1 r[65] + 8.1 r[66] + 9.9 r[67] + 7.3 r[68] + 6.6 r[69]
   + r[70] + 9.4 r[71] + 9.5 r[72] + 0.8 r[73] + 1.6 r[74] + 3.3 r[75]
   + 3.5 r[76] + 2.8 r[77] + 2.1 r[78] + 5.1 r[79] + 7 r[80] + 2.2 r[81]
   + 8.7 r[82] + 7.4 r[83] + 6.2 r[84] + 1.8 r[85] + 3.2 r[86] + 3.3 r[87]
   + 2.7 r[88] + 8.8 r[89] + 3.3 r[90] + 3.3 r[91] + 8.5 r[92] + 10 r[93]
   + 2.9 r[94] + 3 r[95] + 9.8 r[96] + 7.7 r[97] + 9.3 r[98] + 6.9 r[99]
   + 5 r[100] + 4.9 r[101] + 9.9 r[102] + 3.3 r[103] + 8.6 r[104]
   + 9.1 r[105] + 3.2 r[106] + 2.3 r[107] + 3.1 r[108] + 5 r[109]
   + 5.5 r[110] + 2 r[111] + 8.6 r[112] + 1.4 r[113] + 9.8 r[114]
   + 8.7 r[115] + 7.2 r[116] + 1.8 r[117] + 2.2 r[118] + 3.3 r[119]
   + 9.6 r[120] + 1.3 r[121] + 3.6 r[122] + 3.9 r[123] + 0.2 r[124]
   + 7.5 r[125] + 6.4 r[126] + 4.8 r[127] + 7.5 r[128] + 2.4 r[129] <= 646
 primal_lower: 0.6386940773733528 x[0] + 2.877057997797318 x[1]
   + 2.31395404709555 x[2] + 5.210520955940336 x[3]
   + 0.2463511106118811 x[4] + 3.868246134409977 x[5]
   + 5.016359653795719 x[6] + 1.400913239307449 x[7]
   + 0.1561052660658427 x[8] + 2.288232006969526 x[9]
   + 1.758554923495309 x[10] + 2.738335850148236 x[11]
   + 1.548961684957741 x[12] + 2.560960667226119 x[13]
   + 2.268828024538514 x[14] + 2.247082042213517 x[15]
   + 4.473727759373865 x[16] + 0.694544068580532 x[17]
   + 1.025197861900823 x[18] + 1.244862196389311 x[19]
   + 2.652601685212424 x[20] + 4.917833280885841 x[21]
   + 3.504452793683102 x[22] + 1.403109482411109 x[23]
   + 1.516695683219491 x[24] + 1.59707580311157 x[25]
   + 2.287968275769674 x[26] + 4.620357007033903 x[27]
   + 3.38694967123349 x[28] + 0.3893631194188252 x[29]
   + 2.725790714203371 x[30] + 2.934963885593311 x[31]
   + 3.575347277616245 x[32] + 4.732008801620665 x[33]
   + 2.463476446652522 x[34] + 0.6889927206241894 x[35]
   + 3.611283386890409 x[36] + 2.591748860889656 x[37]
   + 1.595205989357583 x[38] + 0.3380916788427304 x[39]
   + 1.303200264655354 x[40] + 2.619387117344897 x[41]
   + 2.675707208830473 x[42] + 2.862025434074826 x[43]
   + 2.618227200215621 x[44] + 4.523565045001299 x[45]
   + 1.004537786753154 x[46] + 4.92873614329114 x[47]
   + 1.076501444334542 x[48] + 3.286864780833624 x[49]
   + 4.219220867522788 x[50] + 1.110030215142583 x[51]
   + 1.164392375944711 x[52] + 0.2360621345649061 x[53]
   + 1.060081529673828 x[54] + 3.709152294157048 x[55]
   + 4.785691227669344 x[56] + 5.229891856768586 x[57]
   + 1.226284796178061 x[58] + 2.376012291995641 x[59]
   + 2.665216991250314 x[60] + 2.989416227292748 x[61]
   + 0.2391902424790665 x[62] + 3.619073701095123 x[63]
   + 1.116472884142686 x[64] + 3.957473252131436 x[65]
   + 1.690122874768572 x[66] + 3.109512526248848 x[67]
   + 3.948936797802339 x[68] + 2.778490222449222 x[69]
   + 5.346045211331112 x[70] + 4.647419785467998 x[71]
   + 0.9748572527498818 x[72] + 0.1065815562943258 x[73]
   + 2.887638605437396 x[74] + 1.881551375816211 x[75]
   + 1.966257040511036 x[76] + 2.604028708517056 x[77]
   + 3.936628463879363 x[78] + 0.1014059774348062 x[79]
   + 0.1729764312786908 x[80] + 1.332648569907406 x[81]
   + 1.590978828679215 x[82] + 1.412292239367406 x[83]
   + 3.459053995083482 x[84] + 0.7150848339517256 x[85]
   + 0.5570754293536212 x[86] + 0.9771611261824817 x[87]
   + 3.328189064732247 x[88] + 1.020261393767999 x[89]
   + 2.872725125337681 x[90] + 0.0196667415742797 x[91]
   + 3.781078732946601 x[92] + 2.798589273362019 x[93]
   + 2.215286950058965 x[94] + 3.764686499857445 x[95]
   + 3.55566039644598 x[96] + 1.647451062361934 x[97]
   + 3.031841825043734 x[98] + 2.359088651296025 x[99]
   + 0.2122248630863794 x[100] + 3.090396939802302 x[101]
   + 5.291830173026089 x[102] + 2.831077601253976 x[103]
   + 3.534572055674134 x[104] + 5.181002177796914 x[105]
   + 3.29705025109483 x[106] + 4.803513384816144 x[107]
   + 0.6803809965199182 x[108] + 3.627244772589752 x[109]
   + 3.839066341112057 x[110] + 5.285171291477308 x[111]
   + 2.409437181377172 x[112] + 0.3916701353481449 x[113]
   + 4.272970414439987 x[114] + 0.162857259236644 x[115]
   + 1.41146043487992 x[116] + 2.540244105999167 x[117]
   + 2.393258360712132 x[118] + 2.0196841167589 x[119]
   + 1.292760373738941 x[120] + 1.461105410063235 x[121]
   + 3.024057772063075 x[122] + 3.056921400963618 x[123]
   + 1.971719138469246 x[124] + 5.28533269385051 x[125]
   + 2.312258473351092 x[126] + 4.346271558631063 x[127]
   + 2.966393432702423 x[128] + 4.744364516167678 x[129] + 26 u[0]
   + 90 u[1] + 76 u[2] + 97 u[3] + 2 u[4] + 100 u[5] + 27 u[6] + 62 u[7]
   + 79 u[8] + 96 u[9] + 54 u[10] + 89 u[11] + 50 u[12] + 54 u[13]
   + 59 u[14] + 99 u[15] + 31 u[16] + 26 u[17] + 63 u[18] + 68 u[19]
   + 67 u[20] + 18 u[21] + 2 u[22] + 41 u[23] + 35 u[24] + 90 u[25]
   + 40 u[26] + 86 u[27] + 64 u[28] + 17 u[29] + 40 u[30] + 14 u[31]
   + 18 u[32] + 63 u[33] + 22 u[34] + 63 u[35] + 18 u[36] + 3 u[37]
   + 70 u[38] + 81 u[39] + 61 u[40] + 100 u[41] + 92 u[42] + 68 u[43]
   + 89 u[44] + 77 u[45] + 56 u[46] + 52 u[47] + 85 u[48] + 30 u[49]
   + 9 u[50] + 6 u[51] + 83 u[52] + 22 u[53] + 19 u[54] + 82 u[55]
   + 59 u[56] + 69 u[57] + 82 u[58] + 92 u[59] + 43 u[60] + 81 u[61]
   + 62 u[62] + 5 u[63] + 6 u[64] + 62 u[65] + 83 u[66] + 73 u[67]
   + 42 u[68] + 32 u[69] + 40 u[70] + 100 u[71] + 96 u[72] + 81 u[73]
   + 14 u[74] + 99 u[75] + 97 u[76] + 85 u[77] + 43 u[78] + 73 u[79]
   + 100 u[80] + 56 u[81] + 5 u[82] + 72 u[83] + 24 u[84] + 88 u[85]
   + 46 u[86] + 38 u[87] + 4 u[88] + 41 u[89] + 87 u[90] + 75 u[91]
   + 31 u[92] + 78 u[93] + 74 u[94] + 67 u[95] + 59 u[96] + 83 u[97]
   + 82 u[98] + 82 u[99] + 23 u[100] + 98 u[101] + 28 u[102] + 62 u[103]
   + 55 u[104] + 44 u[105] + 97 u[106] + 37 u[107] + 25 u[108] + 87 u[109]
   + 33 u[110] + 17 u[111] + 43 u[112] + 59 u[113] + 15 u[114] + 85 u[115]
   + 21 u[116] + 3 u[117] + 23 u[118] + 83 u[119] + 70 u[120] + 59 u[121]
   + 38 u[122] + 93 u[123] + 83 u[124] + 65 u[125] + 78 u[126] + 54 u[127]
   + 69 u[128] + 73 u[129] <= 49998
 mccormick1[0]: - u[0] + r[0] <= 0
 mccormick1[1]: - u[1] + r[1] <= 0
 mccormick1[2]: - u[2] + r[2] <= 0
 mccormick1[3]: - u[3] + r[3] <= 0
 mccormick1[4]: - u[4] + r[4] <= 0
 mccormick1[5]: - u[5] + r[5] <= 0
 mccormick1[6]: - u[6] + r[6] <= 0
 mccormick1[7]: - u[7] + r[7] <= 0
 mccormick1[8]: - u[8] + r[8] <= 0
 mccormick1[9]: - u[9] + r[9] <= 0
 mccormick1[10]: - u[10] + r[10] <= 0
 mccormick1[11]: - u[11] + r[11] <= 0
 mccormick1[12]: - u[12] + r[12] <= 0
 mccormick1[13]: - u[13] + r[13] <= 0
 mccormick1[14]: - u[14] + r[14] <= 0
 mccormick1[15]: - u[15] + r[15] <= 0
 mccormick1[16]: - u[16] + r[16] <= 0
 mccormick1[17]: - u[17] + r[17] <= 0
 mccormick1[18]: - u[18] + r[18] <= 0
 mccormick1[19]: - u[19] + r[19] <= 0
 mccormick1[20]: - u[20] + r[20] <= 0
 mccormick1[21]: - u[21] + r[21] <= 0
 mccormick1[22]: - u[22] + r[22] <= 0
 mccormick1[23]: - u[23] + r[23] <= 0
 mccormick1[24]: - u[24] + r[24] <= 0
 mccormick1[25]: - u[25] + r[25] <= 0
 mccormick1[26]: - u[26] + r[26] <= 0
 mccormick1[27]: - u[27] + r[27] <= 0
 mccormick1[28]: - u[28] + r[28] <= 0
 mccormick1[29]: - u[29] + r[29] <= 0
 mccormick1[30]: - u[30] + r[30] <= 0
 mccormick1[31]: - u[31] + r[31] <= 0
 mccormick1[32]: - u[32] + r[32] <= 0
 mccormick1[33]: - u[33] + r[33] <= 0
 mccormick1[34]: - u[34] + r[34] <= 0
 mccormick1[35]: - u[35] + r[35] <= 0
 mccormick1[36]: - u[36] + r[36] <= 0
 mccormick1[37]: - u[37] + r[37] <= 0
 mccormick1[38]: - u[38] + r[38] <= 0
 mccormick1[39]: - u[39] + r[39] <= 0
 mccormick1[40]: - u[40] + r[40] <= 0
 mccormick1[41]: - u[41] + r[41] <= 0
 mccormick1[42]: - u[42] + r[42] <= 0
 mccormick1[43]: - u[43] + r[43] <= 0
 mccormick1[44]: - u[44] + r[44] <= 0
 mccormick1[45]: - u[45] + r[45] <= 0
 mccormick1[46]: - u[46] + r[46] <= 0
 mccormick1[47]: - u[47] + r[47] <= 0
 mccormick1[48]: - u[48] + r[48] <= 0
 mccormick1[49]: - u[49] + r[49] <= 0
 mccormick1[50]: - u[50] + r[50] <= 0
 mccormick1[51]: - u[51] + r[51] <= 0
 mccormick1[52]: - u[52] + r[52] <= 0
 mccormick1[53]: - u[53] + r[53] <= 0
 mccormick1[54]: - u[54] + r[54] <= 0
 mccormick1[55]: - u[55] + r[55] <= 0
 mccormick1[56]: - u[56] + r[56] <= 0
 mccormick1[57]: - u[57] + r[57] <= 0
 mccormick1[58]: - u[58] + r[58] <= 0
 mccormick1[59]: - u[59] + r[59] <= 0
 mccormick1[60]: - u[60] + r[60] <= 0
 mccormick1[61]: - u[61] + r[61] <= 0
 mccormick1[62]: - u[62] + r[62] <= 0
 mccormick1[63]: - u[63] + r[63] <= 0
 mccormick1[64]: - u[64] + r[64] <= 0
 mccormick1[65]: - u[65] + r[65] <= 0
 mccormick1[66]: - u[66] + r[66] <= 0
 mccormick1[67]: - u[67] + r[67] <= 0
 mccormick1[68]: - u[68] + r[68] <= 0
 mccormick1[69]: - u[69] + r[69] <= 0
 mccormick1[70]: - u[70] + r[70] <= 0
 mccormick1[71]: - u[71] + r[71] <= 0
 mccormick1[72]: - u[72] + r[72] <= 0
 mccormick1[73]: - u[73] + r[73] <= 0
 mccormick1[74]: - u[74] + r[74] <= 0
 mccormick1[75]: - u[75] + r[75] <= 0
 mccormick1[76]: - u[76] + r[76] <= 0
 mccormick1[77]: - u[77] + r[77] <= 0
 mccormick1[78]: - u[78] + r[78] <= 0
 mccormick1[79]: - u[79] + r[79] <= 0
 mccormick1[80]: - u[80] + r[80] <= 0
 mccormick1[81]: - u[81] + r[81] <= 0
 mccormick1[82]: - u[82] + r[82] <= 0
 mccormick1[83]: - u[83] + r[83] <= 0
 mccormick1[84]: - u[84] + r[84] <= 0
 mccormick1[85]: - u[85] + r[85] <= 0
 mccormick1[86]: - u[86] + r[86] <= 0
 mccormick1[87]: - u[87] + r[87] <= 0
 mccormick1[88]: - u[88] + r[88] <= 0
 mccormick1[89]: - u[89] + r[89] <= 0
 mccormick1[90]: - u[90] + r[90] <= 0
 mccormick1[91]: - u[91] + r[91] <= 0
 mccormick1[92]: - u[92] + r[92] <= 0
 mccormick1[93]: - u[93] + r[93] <= 0
 mccormick1[94]: - u[94] + r[94] <= 0
 mccormick1[95]: - u[95] + r[95] <= 0
 mccormick1[96]: - u[96] + r[96] <= 0
 mccormick1[97]: - u[97] + r[97] <= 0
 mccormick1[98]: - u[98] + r[98] <= 0
 mccormick1[99]: - u[99] + r[99] <= 0
 mccormick1[100]: - u[100] + r[100] <= 0
 mccormick1[101]: - u[101] + r[101] <= 0
 mccormick1[102]: - u[102] + r[102] <= 0
 mccormick1[103]: - u[103] + r[103] <= 0
 mccormick1[104]: - u[104] + r[104] <= 0
 mccormick1[105]: - u[105] + r[105] <= 0
 mccormick1[106]: - u[106] + r[106] <= 0
 mccormick1[107]: - u[107] + r[107] <= 0
 mccormick1[108]: - u[108] + r[108] <= 0
 mccormick1[109]: - u[109] + r[109] <= 0
 mccormick1[110]: - u[110] + r[110] <= 0
 mccormick1[111]: - u[111] + r[111] <= 0
 mccormick1[112]: - u[112] + r[112] <= 0
 mccormick1[113]: - u[113] + r[113] <= 0
 mccormick1[114]: - u[114] + r[114] <= 0
 mccormick1[115]: - u[115] + r[115] <= 0
 mccormick1[116]: - u[116] + r[116] <= 0
 mccormick1[117]: - u[117] + r[117] <= 0
 mccormick1[118]: - u[118] + r[118] <= 0
 mccormick1[119]: - u[119] + r[119] <= 0
 mccormick1[120]: - u[120] + r[120] <= 0
 mccormick1[121]: - u[121] + r[121] <= 0
 mccormick1[122]: - u[122] + r[122] <= 0
 mccormick1[123]: - u[123] + r[123] <= 0
 mccormick1[124]: - u[124] + r[124] <= 0
 mccormick1[125]: - u[125] + r[125] <= 0
 mccormick1[126]: - u[126] + r[126] <= 0
 mccormick1[127]: - u[127] + r[127] <= 0
 mccormick1[128]: - u[128] + r[128] <= 0
 mccormick1[129]: - u[129] + r[129] <= 0
 mccormick2[0]: - x[0] + r[0] <= 0
 mccormick2[1]: - x[1] + r[1] <= 0
 mccormick2[2]: - x[2] + r[2] <= 0
 mccormick2[3]: - x[3] + r[3] <= 0
 mccormick2[4]: - x[4] + r[4] <= 0
 mccormick2[5]: - x[5] + r[5] <= 0
 mccormick2[6]: - x[6] + r[6] <= 0
 mccormick2[7]: - x[7] + r[7] <= 0
 mccormick2[8]: - x[8] + r[8] <= 0
 mccormick2[9]: - x[9] + r[9] <= 0
 mccormick2[10]: - x[10] + r[10] <= 0
 mccormick2[11]: - x[11] + r[11] <= 0
 mccormick2[12]: - x[12] + r[12] <= 0
 mccormick2[13]: - x[13] + r[13] <= 0
 mccormick2[14]: - x[14] + r[14] <= 0
 mccormick2[15]: - x[15] + r[15] <= 0
 mccormick2[16]: - x[16] + r[16] <= 0
 mccormick2[17]: - x[17] + r[17] <= 0
 mccormick2[18]: - x[18] + r[18] <= 0
 mccormick2[19]: - x[19] + r[19] <= 0
 mccormick2[20]: - x[20] + r[20] <= 0
 mccormick2[21]: - x[21] + r[21] <= 0
 mccormick2[22]: - x[22] + r[22] <= 0
 mccormick2[23]: - x[23] + r[23] <= 0
 mccormick2[24]: - x[24] + r[24] <= 0
 mccormick2[25]: - x[25] + r[25] <= 0
 mccormick2[26]: - x[26] + r[26] <= 0
 mccormick2[27]: - x[27] + r[27] <= 0
 mccormick2[28]: - x[28] + r[28] <= 0
 mccormick2[29]: - x[29] + r[29] <= 0
 mccormick2[30]: - x[30] + r[30] <= 0
 mccormick2[31]: - x[31] + r[31] <= 0
 mccormick2[32]: - x[32] + r[32] <= 0
 mccormick2[33]: - x[33] + r[33] <= 0
 mccormick2[34]: - x[34] + r[34] <= 0
 mccormick2[35]: - x[35] + r[35] <= 0
 mccormick2[36]: - x[36] + r[36] <= 0
 mccormick2[37]: - x[37] + r[37] <= 0
 mccormick2[38]: - x[38] + r[38] <= 0
 mccormick2[39]: - x[39] + r[39] <= 0
 mccormick2[40]: - x[40] + r[40] <= 0
 mccormick2[41]: - x[41] + r[41] <= 0
 mccormick2[42]: - x[42] + r[42] <= 0
 mccormick2[43]: - x[43] + r[43] <= 0
 mccormick2[44]: - x[44] + r[44] <= 0
 mccormick2[45]: - x[45] + r[45] <= 0
 mccormick2[46]: - x[46] + r[46] <= 0
 mccormick2[47]: - x[47] + r[47] <= 0
 mccormick2[48]: - x[48] + r[48] <= 0
 mccormick2[49]: - x[49] + r[49] <= 0
 mccormick2[50]: - x[50] + r[50] <= 0
 mccormick2[51]: - x[51] + r[51] <= 0
 mccormick2[52]: - x[52] + r[52] <= 0
 mccormick2[53]: - x[53] + r[53] <= 0
 mccormick2[54]: - x[54] + r[54] <= 0
 mccormick2[55]: - x[55] + r[55] <= 0
 mccormick2[56]: - x[56] + r[56] <= 0
 mccormick2[57]: - x[57] + r[57] <= 0
 mccormick2[58]: - x[58] + r[58] <= 0
 mccormick2[59]: - x[59] + r[59] <= 0
 mccormick2[60]: - x[60] + r[60] <= 0
 mccormick2[61]: - x[61] + r[61] <= 0
 mccormick2[62]: - x[62] + r[62] <= 0
 mccormick2[63]: - x[63] + r[63] <= 0
 mccormick2[64]: - x[64] + r[64] <= 0
 mccormick2[65]: - x[65] + r[65] <= 0
 mccormick2[66]: - x[66] + r[66] <= 0
 mccormick2[67]: - x[67] + r[67] <= 0
 mccormick2[68]: - x[68] + r[68] <= 0
 mccormick2[69]: - x[69] + r[69] <= 0
 mccormick2[70]: - x[70] + r[70] <= 0
 mccormick2[71]: - x[71] + r[71] <= 0
 mccormick2[72]: - x[72] + r[72] <= 0
 mccormick2[73]: - x[73] + r[73] <= 0
 mccormick2[74]: - x[74] + r[74] <= 0
 mccormick2[75]: - x[75] + r[75] <= 0
 mccormick2[76]: - x[76] + r[76] <= 0
 mccormick2[77]: - x[77] + r[77] <= 0
 mccormick2[78]: - x[78] + r[78] <= 0
 mccormick2[79]: - x[79] + r[79] <= 0
 mccormick2[80]: - x[80] + r[80] <= 0
 mccormick2[81]: - x[81] + r[81] <= 0
 mccormick2[82]: - x[82] + r[82] <= 0
 mccormick2[83]: - x[83] + r[83] <= 0
 mccormick2[84]: - x[84] + r[84] <= 0
 mccormick2[85]: - x[85] + r[85] <= 0
 mccormick2[86]: - x[86] + r[86] <= 0
 mccormick2[87]: - x[87] + r[87] <= 0
 mccormick2[88]: - x[88] + r[88] <= 0
 mccormick2[89]: - x[89] + r[89] <= 0
 mccormick2[90]: - x[90] + r[90] <= 0
 mccormick2[91]: - x[91] + r[91] <= 0
 mccormick2[92]: - x[92] + r[92] <= 0
 mccormick2[93]: - x[93] + r[93] <= 0
 mccormick2[94]: - x[94] + r[94] <= 0
 mccormick2[95]: - x[95] + r[95] <= 0
 mccormick2[96]: - x[96] + r[96] <= 0
 mccormick2[97]: - x[97] + r[97] <= 0
 mccormick2[98]: - x[98] + r[98] <= 0
 mccormick2[99]: - x[99] + r[99] <= 0
 mccormick2[100]: - x[100] + r[100] <= 0
 mccormick2[101]: - x[101] + r[101] <= 0
 mccormick2[102]: - x[102] + r[102] <= 0
 mccormick2[103]: - x[103] + r[103] <= 0
 mccormick2[104]: - x[104] + r[104] <= 0
 mccormick2[105]: - x[105] + r[105] <= 0
 mccormick2[106]: - x[106] + r[106] <= 0
 mccormick2[107]: - x[107] + r[107] <= 0
 mccormick2[108]: - x[108] + r[108] <= 0
 mccormick2[109]: - x[109] + r[109] <= 0
 mccormick2[110]: - x[110] + r[110] <= 0
 mccormick2[111]: - x[111] + r[111] <= 0
 mccormick2[112]: - x[112] + r[112] <= 0
 mccormick2[113]: - x[113] + r[113] <= 0
 mccormick2[114]: - x[114] + r[114] <= 0
 mccormick2[115]: - x[115] + r[115] <= 0
 mccormick2[116]: - x[116] + r[116] <= 0
 mccormick2[117]: - x[117] + r[117] <= 0
 mccormick2[118]: - x[118] + r[118] <= 0
 mccormick2[119]: - x[119] + r[119] <= 0
 mccormick2[120]: - x[120] + r[120] <= 0
 mccormick2[121]: - x[121] + r[121] <= 0
 mccormick2[122]: - x[122] + r[122] <= 0
 mccormick2[123]: - x[123] + r[123] <= 0
 mccormick2[124]: - x[124] + r[124] <= 0
 mccormick2[125]: - x[125] + r[125] <= 0
 mccormick2[126]: - x[126] + r[126] <= 0
 mccormick2[127]: - x[127] + r[127] <= 0
 mccormick2[128]: - x[128] + r[128] <= 0
 mccormick2[129]: - x[129] + r[129] <= 0
 mccormick3[0]: x[0] + u[0] - r[0] <= 1
 mccormick3[1]: x[1] + u[1] - r[1] <= 1
 mccormick3[2]: x[2] + u[2] - r[2] <= 1
 mccormick3[3]: x[3] + u[3] - r[3] <= 1
 mccormick3[4]: x[4] + u[4] - r[4] <= 1
 mccormick3[5]: x[5] + u[5] - r[5] <= 1
 mccormick3[6]: x[6] + u[6] - r[6] <= 1
 mccormick3[7]: x[7] + u[7] - r[7] <= 1
 mccormick3[8]: x[8] + u[8] - r[8] <= 1
 mccormick3[9]: x[9] + u[9] - r[9] <= 1
 mccormick3[10]: x[10] + u[10] - r[10] <= 1
 mccormick3[11]: x[11] + u[11] - r[11] <= 1
 mccormick3[12]: x[12] + u[12] - r[12] <= 1
 mccormick3[13]: x[13] + u[13] - r[13] <= 1
 mccormick3[14]: x[14] + u[14] - r[14] <= 1
 mccormick3[15]: x[15] + u[15] - r[15] <= 1
 mccormick3[16]: x[16] + u[16] - r[16] <= 1
 mccormick3[17]: x[17] + u[17] - r[17] <= 1
 mccormick3[18]: x[18] + u[18] - r[18] <= 1
 mccormick3[19]: x[19] + u[19] - r[19] <= 1
 mccormick3[20]: x[20] + u[20] - r[20] <= 1
 mccormick3[21]: x[21] + u[21] - r[21] <= 1
 mccormick3[22]: x[22] + u[22] - r[22] <= 1
 mccormick3[23]: x[23] + u[23] - r[23] <= 1
 mccormick3[24]: x[24] + u[24] - r[24] <= 1
 mccormick3[25]: x[25] + u[25] - r[25] <= 1
 mccormick3[26]: x[26] + u[26] - r[26] <= 1
 mccormick3[27]: x[27] + u[27] - r[27] <= 1
 mccormick3[28]: x[28] + u[28] - r[28] <= 1
 mccormick3[29]: x[29] + u[29] - r[29] <= 1
 mccormick3[30]: x[30] + u[30] - r[30] <= 1
 mccormick3[31]: x[31] + u[31] - r[31] <= 1
 mccormick3[32]: x[32] + u[32] - r[32] <= 1
 mccormick3[33]: x[33] + u[33] - r[33] <= 1
 mccormick3[34]: x[34] + u[34] - r[34] <= 1
 mccormick3[35]: x[35] + u[35] - r[35] <= 1
 mccormick3[36]: x[36] + u[36] - r[36] <= 1
 mccormick3[37]: x[37] + u[37] - r[37] <= 1
 mccormick3[38]: x[38] + u[38] - r[38] <= 1
 mccormick3[39]: x[39] + u[39] - r[39] <= 1
 mccormick3[40]: x[40] + u[40] - r[40] <= 1
 mccormick3[41]: x[41] + u[41] - r[41] <= 1
 mccormick3[42]: x[42] + u[42] - r[42] <= 1
 mccormick3[43]: x[43] + u[43] - r[43] <= 1
 mccormick3[44]: x[44] + u[44] - r[44] <= 1
 mccormick3[45]: x[45] + u[45] - r[45] <= 1
 mccormick3[46]: x[46] + u[46] - r[46] <= 1
 mccormick3[47]: x[47] + u[47] - r[47] <= 1
 mccormick3[48]: x[48] + u[48] - r[48] <= 1
 mccormick3[49]: x[49] + u[49] - r[49] <= 1
 mccormick3[50]: x[50] + u[50] - r[50] <= 1
 mccormick3[51]: x[51] + u[51] - r[51] <= 1
 mccormick3[52]: x[52] + u[52] - r[52] <= 1
 mccormick3[53]: x[53] + u[53] - r[53] <= 1
 mccormick3[54]: x[54] + u[54] - r[54] <= 1
 mccormick3[55]: x[55] + u[55] - r[55] <= 1
 mccormick3[56]: x[56] + u[56] - r[56] <= 1
 mccormick3[57]: x[57] + u[57] - r[57] <= 1
 mccormick3[58]: x[58] + u[58] - r[58] <= 1
 mccormick3[59]: x[59] + u[59] - r[59] <= 1
 mccormick3[60]: x[60] + u[60] - r[60] <= 1
 mccormick3[61]: x[61] + u[61] - r[61] <= 1
 mccormick3[62]: x[62] + u[62] - r[62] <= 1
 mccormick3[63]: x[63] + u[63] - r[63] <= 1
 mccormick3[64]: x[64] + u[64] - r[64] <= 1
 mccormick3[65]: x[65] + u[65] - r[65] <= 1
 mccormick3[66]: x[66] + u[66] - r[66] <= 1
 mccormick3[67]: x[67] + u[67] - r[67] <= 1
 mccormick3[68]: x[68] + u[68] - r[68] <= 1
 mccormick3[69]: x[69] + u[69] - r[69] <= 1
 mccormick3[70]: x[70] + u[70] - r[70] <= 1
 mccormick3[71]: x[71] + u[71] - r[71] <= 1
 mccormick3[72]: x[72] + u[72] - r[72] <= 1
 mccormick3[73]: x[73] + u[73] - r[73] <= 1
 mccormick3[74]: x[74] + u[74] - r[74] <= 1
 mccormick3[75]: x[75] + u[75] - r[75] <= 1
 mccormick3[76]: x[76] + u[76] - r[76] <= 1
 mccormick3[77]: x[77] + u[77] - r[77] <= 1
 mccormick3[78]: x[78] + u[78] - r[78] <= 1
 mccormick3[79]: x[79] + u[79] - r[79] <= 1
 mccormick3[80]: x[80] + u[80] - r[80] <= 1
 mccormick3[81]: x[81] + u[81] - r[81] <= 1
 mccormick3[82]: x[82] + u[82] - r[82] <= 1
 mccormick3[83]: x[83] + u[83] - r[83] <= 1
 mccormick3[84]: x[84] + u[84] - r[84] <= 1
 mccormick3[85]: x[85] + u[85] - r[85] <= 1
 mccormick3[86]: x[86] + u[86] - r[86] <= 1
 mccormick3[87]: x[87] + u[87] - r[87] <= 1
 mccormick3[88]: x[88] + u[88] - r[88] <= 1
 mccormick3[89]: x[89] + u[89] - r[89] <= 1
 mccormick3[90]: x[90] + u[90] - r[90] <= 1
 mccormick3[91]: x[91] + u[91] - r[91] <= 1
 mccormick3[92]: x[92] + u[92] - r[92] <= 1
 mccormick3[93]: x[93] + u[93] - r[93] <= 1
 mccormick3[94]: x[94] + u[94] - r[94] <= 1
 mccormick3[95]: x[95] + u[95] - r[95] <= 1
 mccormick3[96]: x[96] + u[96] - r[96] <= 1
 mccormick3[97]: x[97] + u[97] - r[97] <= 1
 mccormick3[98]: x[98] + u[98] - r[98] <= 1
 mccormick3[99]: x[99] + u[99] - r[99] <= 1
 mccormick3[100]: x[100] + u[100] - r[100] <= 1
 mccormick3[101]: x[101] + u[101] - r[101] <= 1
 mccormick3[102]: x[102] + u[102] - r[102] <= 1
 mccormick3[103]: x[103] + u[103] - r[103] <= 1
 mccormick3[104]: x[104] + u[104] - r[104] <= 1
 mccormick3[105]: x[105] + u[105] - r[105] <= 1
 mccormick3[106]: x[106] + u[106] - r[106] <= 1
 mccormick3[107]: x[107] + u[107] - r[107] <= 1
 mccormick3[108]: x[108] + u[108] - r[108] <= 1
 mccormick3[109]: x[109] + u[109] - r[109] <= 1
 mccormick3[110]: x[110] + u[110] - r[110] <= 1
 mccormick3[111]: x[111] + u[111] - r[111] <= 1
 mccormick3[112]: x[112] + u[112] - r[112] <= 1
 mccormick3[113]: x[113] + u[113] - r[113] <= 1
 mccormick3[114]: x[114] + u[114] - r[114] <= 1
 mccormick3[115]: x[115] + u[115] - r[115] <= 1
 mccormick3[116]: x[116] + u[116] - r[116] <= 1
 mccormick3[117]: x[117] + u[117] - r[117] <= 1
 mccormick3[118]: x[118] + u[118] - r[118] <= 1
 mccormick3[119]: x[119] + u[119] - r[119] <= 1
 mccormick3[120]: x[120] + u[120] - r[120] <= 1
 mccormick3[121]: x[121] + u[121] - r[121] <= 1
 mccormick3[122]: x[122] + u[122] - r[122] <= 1
 mccormick3[123]: x[123] + u[123] - r[123] <= 1
 mccormick3[124]: x[124] + u[124] - r[124] <= 1
 mccormick3[125]: x[125] + u[125] - r[125] <= 1
 mccormick3[126]: x[126] + u[126] - r[126] <= 1
 mccormick3[127]: x[127] + u[127] - r[127] <= 1
 mccormick3[128]: x[128] + u[128] - r[128] <= 1
 mccormick3[129]: x[129] + u[129] - r[129] <= 1
Bounds
Binaries
 x[0] x[1] x[2] x[3] x[4] x[5] x[6] x[7] x[8] x[9] x[10] x[11] x[12] x[13]
 x[14] x[15] x[16] x[17] x[18] x[19] x[20] x[21] x[22] x[23] x[24] x[25]
 x[26] x[27] x[28] x[29] x[30] x[31] x[32] x[33] x[34] x[35] x[36] x[37]
 x[38] x[39] x[40] x[41] x[42] x[43] x[44] x[45] x[46] x[47] x[48] x[49]
 x[50] x[51] x[52] x[53] x[54] x[55] x[56] x[57] x[58] x[59] x[60] x[61]
 x[62] x[63] x[64] x[65] x[66] x[67] x[68] x[69] x[70] x[71] x[72] x[73]
 x[74] x[75] x[76] x[77] x[78] x[79] x[80] x[81] x[82] x[83] x[84] x[85]
 x[86] x[87] x[88] x[89] x[90] x[91] x[92] x[93] x[94] x[95] x[96] x[97]
 x[98] x[99] x[100] x[101] x[102] x[103] x[104] x[105] x[106] x[107] x[108]
 x[109] x[110] x[111] x[112] x[113] x[114] x[115] x[116] x[117] x[118]
 x[119] x[120] x[121] x[122] x[123] x[124] x[125] x[126] x[127] x[128]
 x[129] u[0] u[1] u[2] u[3] u[4] u[5] u[6] u[7] u[8] u[9] u[10] u[11] u[12]
 u[13] u[14] u[15] u[16] u[17] u[18] u[19] u[20] u[21] u[22] u[23] u[24]
 u[25] u[26] u[27] u[28] u[29] u[30] u[31] u[32] u[33] u[34] u[35] u[36]
 u[37] u[38] u[39] u[40] u[41] u[42] u[43] u[44] u[45] u[46] u[47] u[48]
 u[49] u[50] u[51] u[52] u[53] u[54] u[55] u[56] u[57] u[58] u[59] u[60]
 u[61] u[62] u[63] u[64] u[65] u[66] u[67] u[68] u[69] u[70] u[71] u[72]
 u[73] u[74] u[75] u[76] u[77] u[78] u[79] u[80] u[81] u[82] u[83] u[84]
 u[85] u[86] u[87] u[88] u[89] u[90] u[91] u[92] u[93] u[94] u[95] u[96]
 u[97] u[98] u[99] u[100] u[101] u[102] u[103] u[104] u[105] u[106] u[107]
 u[108] u[109] u[110] u[111] u[112] u[113] u[114] u[115] u[116] u[117]
 u[118] u[119] u[120] u[121] u[122] u[123] u[124] u[125] u[126] u[127]
 u[128] u[129] r[0] r[1] r[2] r[3] r[4] r[5] r[6] r[7] r[8] r[9] r[10]
 r[11] r[12] r[13] r[14] r[15] r[16] r[17] r[18] r[19] r[20] r[21] r[22]
 r[23] r[24] r[25] r[26] r[27] r[28] r[29] r[30] r[31] r[32] r[33] r[34]
 r[35] r[36] r[37] r[38] r[39] r[40] r[41] r[42] r[43] r[44] r[45] r[46]
 r[47] r[48] r[49] r[50] r[51] r[52] r[53] r[54] r[55] r[56] r[57] r[58]
 r[59] r[60] r[61] r[62] r[63] r[64] r[65] r[66] r[67] r[68] r[69] r[70]
 r[71] r[72] r[73] r[74] r[75] r[76] r[77] r[78] r[79] r[80] r[81] r[82]
 r[83] r[84] r[85] r[86] r[87] r[88] r[89] r[90] r[91] r[92] r[93] r[94]
 r[95] r[96] r[97] r[98] r[99] r[100] r[101] r[102] r[103] r[104] r[105]
 r[106] r[107] r[108] r[109] r[110] r[111] r[112] r[113] r[114] r[115]
 r[116] r[117] r[118] r[119] r[120] r[121] r[122] r[123] r[124] r[125]
 r[126] r[127] r[128] r[129]
End
