instances/knapsack/discrete_knapsack_uncertainty/knapsack_130_5.kp
99511
130
646

16 1.6 73
37 3.7 1
75 7.5 3
68 6.8 67
93 9.3 40
22 2.2 40
94 9.4 64
80 8.0 6
90 9.0 61
99 9.9 93
56 5.6 86
88 8.8 86
13 1.3 82
65 6.5 53
77 7.7 62
69 6.9 87
82 8.2 81
57 5.7 65
62 6.2 69
23 2.3 4
18 1.8 60
36 3.6 50
89 8.9 47
31 3.1 59
69 6.9 16
37 3.7 25
3 0.3 39
76 7.6 50
66 6.6 41
80 8.0 19
2 0.2 28
100 10.0 59
8 0.8 55
14 1.4 22
73 7.3 18
30 3.0 60
89 8.9 8
21 2.1 14
25 2.5 65
19 1.9 22
24 2.4 63
70 7.0 32
71 7.1 72
22 2.2 30
60 6.0 53
23 2.3 10
6 0.6 27
50 5.0 31
52 5.2 35
9 0.9 32
39 3.9 82
57 5.7 9
90 9.0 86
89 8.9 84
5 0.5 19
88 8.8 81
54 5.4 93
35 3.5 79
77 7.7 31
39 3.9 26
61 6.1 59
39 3.9 57
56 5.6 76
63 6.3 20
48 4.8 5
21 2.1 24
81 8.1 68
99 9.9 88
73 7.3 47
66 6.6 8
10 1.0 32
94 9.4 50
95 9.5 96
8 0.8 44
16 1.6 33
33 3.3 81
35 3.5 45
28 2.8 20
21 2.1 47
51 5.1 26
70 7.0 42
22 2.2 93
87 8.7 36
74 7.4 13
62 6.2 56
18 1.8 71
32 3.2 73
33 3.3 86
27 2.7 91
88 8.8 13
33 3.3 13
33 3.3 32
85 8.5 44
100 10.0 47
29 2.9 31
30 3.0 13
98 9.8 88
77 7.7 79
93 9.3 75
69 6.9 19
50 5.0 43
49 4.9 4
99 9.9 61
33 3.3 84
86 8.6 14
91 9.1 58
32 3.2 89
23 2.3 7
31 3.1 57
50 5.0 27
55 5.5 40
20 2.0 37
86 8.6 44
14 1.4 50
98 9.8 97
87 8.7 64
72 7.2 58
18 1.8 24
22 2.2 81
33 3.3 30
96 9.6 8
13 1.3 73
36 3.6 81
39 3.9 74
2 0.2 18
75 7.5 99
64 6.4 75
48 4.8 85
75 7.5 54
24 2.4 63

49998
701

[0.6386940773733528 2.8770579977973183 2.31395404709555 5.2105209559403365 0.2463511106118811 3.8682461344099774 5.016359653795719 1.4009132393074488 0.15610526606584268 2.288232006969526 1.7585549234953088 2.738335850148236 1.5489616849577412 2.560960667226119 2.2688280245385135 2.247082042213517 4.473727759373865 0.694544068580532 1.025197861900823 1.2448621963893105 2.6526016852124243 4.917833280885841 3.504452793683102 1.4031094824111086 1.5166956832194907 1.5970758031115702 2.287968275769674 4.620357007033903 3.38694967123349 0.3893631194188252 2.725790714203371 2.9349638855933113 3.575347277616245 4.732008801620665 2.4634764466525216 0.6889927206241894 3.6112833868904093 2.5917488608896555 1.5952059893575825 0.3380916788427304 1.3032002646553535 2.6193871173448966 2.6757072088304725 2.8620254340748263 2.6182272002156215 4.523565045001299 1.0045377867531544 4.92873614329114 1.0765014443345418 3.286864780833624 4.219220867522788 1.1100302151425834 1.1643923759447106 0.2360621345649061 1.0600815296738282 3.709152294157048 4.785691227669344 5.229891856768586 1.2262847961780605 2.3760122919956412 2.665216991250314 2.9894162272927476 0.2391902424790665 3.6190737010951226 1.1164728841426856 3.957473252131436 1.6901228747685721 3.109512526248848 3.948936797802339 2.7784902224492223 5.346045211331112 4.647419785467998 0.9748572527498818 0.10658155629432577 2.8876386054373957 1.881551375816211 1.9662570405110364 2.604028708517056 3.9366284638793627 0.10140597743480617 0.17297643127869075 1.3326485699074055 1.5909788286792146 1.4122922393674058 3.4590539950834818 0.7150848339517256 0.5570754293536212 0.9771611261824817 3.3281890647322467 1.020261393767999 2.8727251253376807 0.019666741574279695 3.781078732946601 2.7985892733620195 2.2152869500589647 3.7646864998574454 3.5556603964459796 1.6474510623619343 3.0318418250437342 2.359088651296025 0.21222486308637944 3.090396939802302 5.291830173026089 2.831077601253976 3.5345720556741336 5.181002177796914 3.2970502510948303 4.803513384816144 0.6803809965199182 3.6272447725897523 3.8390663411120567 5.285171291477308 2.4094371813771716 0.39167013534814493 4.272970414439987 0.16285725923664401 1.4114604348799205 2.540244105999167 2.393258360712132 2.0196841167588997 1.2927603737389406 1.4611054100632352 3.0240577720630752 3.0569214009636183 1.9717191384692458 5.28533269385051 2.312258473351092 4.346271558631063 2.966393432702423 4.7443645161676775]

[26 90 76 97 2 100 27 62 79 96 54 89 50 54 59 99 31 26 63 68 67 18 2 41 35 90 40 86 64 17 40 14 18 63 22 63 18 3 70 81 61 100 92 68 89 77 56 52 85 30 9 6 83 22 19 82 59 69 82 92 43 81 62 5 6 62 83 73 42 32 40 100 96 81 14 99 97 85 43 73 100 56 5 72 24 88 46 38 4 41 87 75 31 78 74 67 59 83 82 82 23 98 28 62 55 44 97 37 25 87 33 17 43 59 15 85 21 3 23 83 70 59 38 93 83 65 78 54 69 73]
